Geometry = GenFormat {
167 C
C H
1 1 -1.1328290000 0.7383900000 0.0000000000
2 1 -1.1328290000 2.2783900000 0.0000000000
3 1 -2.5848290000 2.7923900000 0.0000000000
4 1 -2.5848290000 4.3323900000 0.0000000000
5 1 -4.0368290000 4.8453900000 0.0000000000
6 1 -4.0368290000 6.3853900000 0.0000000000
7 1 0.3191710000 0.2253900000 0.0000000000
8 2 -1.6468290000 0.3753900000 0.8900000000
9 2 -1.6468290000 0.3753900000 -0.8900000000
10 2 -0.6198290000 2.6423900000 0.8900000000
11 2 -0.6198290000 2.6423900000 -0.8900000000
12 2 -3.0988290000 2.4283900000 -0.8900000000
13 2 -3.0988290000 2.4283900000 0.8900000000
14 2 -2.0718290000 4.6953900000 0.8900000000
15 2 -2.0718290000 4.6953900000 -0.8900000000
16 2 -4.5508290000 4.4823900000 -0.8900000000
17 2 -4.5508290000 4.4823900000 0.8900000000
18 2 -3.5228290000 6.7483900000 0.8900000000
19 2 -3.5228290000 6.7483900000 -0.8900000000
20 1 0.3191710000 -1.3146100000 0.0000000000
21 2 0.8321710000 0.5883900000 -0.8900000000
22 2 0.8321710000 0.5883900000 0.8900000000
23 1 1.7701710000 -1.8276100000 0.0000000000
24 2 -0.1948290000 -1.6776100000 0.8900000000
25 2 -0.1948290000 -1.6776100000 -0.8900000000
26 1 1.7701710000 -3.3676100000 0.0000000000
27 2 2.2841710000 -1.4646100000 -0.8900000000
28 2 2.2841710000 -1.4646100000 0.8900000000
29 1 3.2221710000 -3.8816100000 0.0000000000
30 2 1.2571710000 -3.7316100000 0.8900000000
31 2 1.2571710000 -3.7316100000 -0.8900000000
32 1 3.2221710000 -5.4216100000 0.0000000000
33 2 3.7361710000 -3.5176100000 -0.8900000000
34 2 3.7361710000 -3.5176100000 0.8900000000
35 1 4.6741710000 -5.9346100000 0.0000000000
36 2 2.7091710000 -5.7846100000 0.8900000000
37 2 2.7091710000 -5.7846100000 -0.8900000000
38 2 5.1881710000 -5.5716100000 -0.8900000000
39 2 5.1881710000 -5.5716100000 0.8900000000
40 1 9.0320210000 -11.6433640000 0.0000000000
41 1 7.5798940000 -11.1305980000 0.0000000000
42 1 7.5786880000 -9.5903070000 0.0000000000
43 1 6.1265610000 -9.0775420000 0.0000000000
44 1 6.1262970000 -7.5375830000 0.0000000000
45 1 4.6741710000 -7.0248180000 0.0000000000
46 1 9.0322850000 -13.1833220000 0.0000000000
47 2 9.5454520000 -11.2795590000 -0.8900000000
48 2 9.5454520000 -11.2795590000 0.8900000000
49 2 7.0658540000 -11.4931270000 -0.8900000000
50 2 7.0658540000 -11.4931270000 0.8900000000
51 2 8.0930610000 -9.2268350000 0.8900000000
52 2 8.0930610000 -9.2268350000 -0.8900000000
53 2 5.6134630000 -9.4404030000 -0.8900000000
54 2 5.6134630000 -9.4404030000 0.8900000000
55 2 6.6397280000 -7.1737780000 0.8900000000
56 2 6.6397280000 -7.1737780000 -0.8900000000
57 2 4.1607400000 -7.3886230000 -0.8900000000
58 2 4.1607400000 -7.3886230000 0.8900000000
59 1 10.4844120000 -13.6960870000 0.0000000000
60 2 8.5191870000 -13.5461840000 0.8900000000
61 2 8.5191870000 -13.5461840000 -0.8900000000
62 1 10.4850080000 -15.2351030000 0.0000000000
63 2 10.9978420000 -13.3322830000 -0.8900000000
64 2 10.9978420000 -13.3322830000 0.8900000000
65 1 11.9371350000 -15.7478680000 0.0000000000
66 2 9.9715770000 -15.5989080000 0.8900000000
67 2 9.9715770000 -15.5989080000 -0.8900000000
68 1 11.9383420000 -17.2881600000 0.0000000000
69 2 12.4511750000 -15.3853390000 -0.8900000000
70 2 12.4511750000 -15.3853390000 0.8900000000
71 1 13.3904680000 -17.8009250000 0.0000000000
72 2 11.4239680000 -17.6516320000 0.8900000000
73 2 11.4239680000 -17.6516320000 -0.8900000000
74 1 13.3907320000 -19.3408840000 0.0000000000
75 2 13.9035660000 -17.4380630000 -0.8900000000
76 2 13.9035660000 -17.4380630000 0.8900000000
77 2 12.8773010000 -19.7046890000 0.8900000000
78 2 12.8773010000 -19.7046890000 -0.8900000000
79 1 -7.9688290000 12.3953900000 -0.0000000000
80 1 -7.9688290000 10.8553900000 -0.0000000000
81 1 -6.5168300000 10.3413900000 -0.0000000000
82 1 -6.5168300000 8.8013900000 -0.0000000000
83 1 -5.0648290000 8.2883900000 -0.0000000000
84 1 -5.0648290000 6.7483900000 -0.0000000000
85 1 -9.4208290000 12.9083900000 -0.0000000000
86 2 -7.4548300000 12.7583900000 0.8900000000
87 2 -7.4548290000 12.7583900000 -0.8900000000
88 2 -8.4818290000 10.4913900000 0.8900000000
89 2 -8.4818290000 10.4913900000 -0.8900000000
90 2 -6.0028290000 10.7053900000 -0.8900000000
91 2 -6.0028290000 10.7053900000 0.8900000000
92 2 -7.0298290000 8.4383900000 0.8900000000
93 2 -7.0298290000 8.4383900000 -0.8900000000
94 2 -4.5508290000 8.6513900000 -0.8900000000
95 2 -4.5508290000 8.6513900000 0.8900000000
96 2 -5.5788300000 6.3853900000 0.8900000000
97 2 -5.5788300000 6.3853900000 -0.8900000000
98 1 -9.4208290000 14.4483900000 -0.0000000000
99 2 -9.9338290000 12.5453900000 -0.8900000000
100 2 -9.9338290000 12.5453900000 0.8900000000
101 1 -10.8718300000 14.9613900000 -0.0000000000
102 2 -8.9068290000 14.8113900000 0.8900000000
103 2 -8.9068290000 14.8113900000 -0.8900000000
104 1 -10.8718300000 16.5013900000 -0.0000000000
105 2 -11.3858290000 14.5983900000 -0.8900000000
106 2 -11.3858300000 14.5983900000 0.8900000000
107 1 -12.3238290000 17.0153900000 -0.0000000000
108 2 -10.3588290000 16.8653900000 0.8900000000
109 2 -10.3588290000 16.8653900000 -0.8900000000
110 1 -12.3238290000 18.5553900000 -0.0000000000
111 2 -12.8378290000 16.6513900000 -0.8900000000
112 2 -12.8378290000 16.6513900000 0.8900000000
113 1 -13.7758300000 19.0683900000 -0.0000000000
114 2 -11.8108290000 18.9183900000 0.8900000000
115 2 -11.8108290000 18.9183900000 -0.8900000000
116 2 -14.2898300000 18.7053900000 -0.8900000000
117 2 -14.2898300000 18.7053900000 0.8900000000
118 1 17.3227320000 -25.3508840000 0.0000000000
119 1 17.3227320000 -23.8108840000 0.0000000000
120 1 15.8707320000 -23.2968840000 0.0000000000
121 1 15.8707320000 -21.7568840000 0.0000000000
122 1 14.4187320000 -21.2438840000 0.0000000000
123 1 14.4187320000 -19.7038840000 0.0000000000
124 1 18.7747320000 -25.8638840000 0.0000000000
125 2 16.8087320000 -25.7138840000 0.8900000000
126 2 16.8087320000 -25.7138840000 -0.8900000000
127 2 17.8357320000 -23.4468840000 0.8900000000
128 2 17.8357320000 -23.4468840000 -0.8900000000
129 2 15.3567320000 -23.6608840000 -0.8900000000
130 2 15.3567320000 -23.6608840000 0.8900000000
131 2 16.3837320000 -21.3938840000 0.8900000000
132 2 16.3837320000 -21.3938840000 -0.8900000000
133 2 13.9047320000 -21.6068840000 -0.8900000000
134 2 13.9047320000 -21.6068840000 0.8900000000
135 2 14.9327320000 -19.3408840000 0.8900000000
136 2 14.9327320000 -19.3408840000 -0.8900000000
137 1 18.7747320000 -27.4038840000 0.0000000000
138 2 19.2877320000 -25.5008840000 -0.8900000000
139 2 19.2877320000 -25.5008840000 0.8900000000
140 1 20.2257320000 -27.9168840000 0.0000000000
141 2 18.2607320000 -27.7668840000 0.8900000000
142 2 18.2607320000 -27.7668840000 -0.8900000000
143 1 20.2257320000 -29.4568840000 0.0000000000
144 2 20.7397320000 -27.5538840000 -0.8900000000
145 2 20.7397320000 -27.5538840000 0.8900000000
146 1 21.6777320000 -29.9708840000 0.0000000000
147 2 19.7127320000 -29.8208840000 0.8900000000
148 2 19.7127320000 -29.8208840000 -0.8900000000
149 1 21.6777320000 -31.5108840000 0.0000000000
150 2 22.1917320000 -29.6068840000 -0.8900000000
151 2 22.1917320000 -29.6068840000 0.8900000000
152 1 23.1297320000 -32.0238840000 0.0000000000
153 2 21.1647320000 -31.8738840000 0.8900000000
154 2 21.1647320000 -31.8738840000 -0.8900000000
155 2 23.1297320000 -33.1138840000 0.0000000000
156 2 23.6437320000 -31.6608840000 -0.8900000000
157 2 23.6437320000 -31.6608840000 0.8900000000
158 1 -13.7758300000 20.1390730000 -0.0000000000
159 1 -15.2281100000 20.6525690000 -0.0000000000
160 1 -15.2293070000 22.1926480000 0.0004720000
161 2 -13.2715400000 20.4949500000 0.8729420000
162 2 -13.2714930000 20.4945460000 -0.8734580000
163 2 -15.7327420000 20.2957650000 -0.8730920000
164 2 -15.7330770000 20.2961200000 0.8742640000
165 2 -16.2380660000 22.5488270000 0.0007880000
166 2 -14.7246760000 22.5494530000 0.8735650000
167 2 -14.7252350000 22.5494680000 -0.8740430000
}
Driver = VelocityVerlet {
  Steps = 100
  TimeStep [Femtosecond] = 0.10000000000000
  Thermostat = None {
    InitialTemperature [Kelvin] = 5000
  }
  OutputPrefix = "geom.out"
  MDRestartFrequency = 1
  Velocities = {}
  MovedAtoms = "1:-1"
  KeepStationary = Yes
  ConvergentForcesOnly = Yes
  Masses = {}
}
Hamiltonian = DFTB {
  MaxAngularMomentum = {
    C = "p"
    H = "s"
  }
  solver = RelativelyRobust {}
  SlaterKosterFiles = {
    C-C = "C-C.skf"
    C-H = "C-H.skf"
    H-C = "H-C.skf"
    H-H = "H-H.skf"
  }
  PolynomialRepulsive = {}
  ShellResolvedSCC = No
  OldSKInterpolation = No
  RangeSeparated = None {}
  SCC = No
  SpinPolarisation = {}
  ElectricField = {}
  Filling = Fermi {
    Temperature = 0.0000000000000000
  }
  Charge = 0.0000000000000000
  OnSiteCorrection = {}
  Dispersion = {}
  Differentiation = FiniteDiff {
    Delta = 1.2207031250000000E-004
  }
}
ParserOptions = {
  ParserVersion = 7
  WriteHSDInput = Yes
  WriteXMLInput = No
  StopAfterParsing = No
  IgnoreUnprocessedNodes = No
}
Analysis = {
  ProjectStates = {}
  WriteEigenvectors = No
  WriteBandOut = Yes
  MullikenAnalysis = Yes
  AtomResolvedEnergies = No
  CalculateForces = No
  EigenvectorsAsTxt = No
}
ExcitedState = {}
Options = {
  WriteDetailedOut = Yes
  WriteAutotestTag = No
  WriteDetailedXML = No
  WriteResultsTag = No
  RandomSeed = 0
  WriteHS = No
  WriteRealHS = No
  MinimiseMemoryUsage = No
  ShowFoldedCoords = No
  TimingVerbosity = 1
  WriteChargesAsText = No
}
