Geometry = GenFormat {
596 C
C H
1 1 -2.9038390000 3.3366600000 0.0000000000
2 1 -2.9038390000 4.8766600000 0.0000000000
3 1 -4.3558390000 5.3896600000 0.0000000000
4 1 -4.3558390000 6.9296600000 0.0000000000
5 1 -5.8078390000 7.4436600000 0.0000000000
6 1 -5.8078390000 8.9836600000 0.0000000000
7 1 -1.4518390000 2.8236600000 0.0000000000
8 2 -3.4178390000 2.9736600000 0.8900000000
9 2 -3.4178390000 2.9736600000 -0.8900000000
10 2 -2.3898390000 5.2396600000 0.8900000000
11 2 -2.3898390000 5.2396600000 -0.8900000000
12 2 -4.8698390000 5.0266600000 -0.8900000000
13 2 -4.8698390000 5.0266600000 0.8900000000
14 2 -3.8418390000 7.2936600000 0.8900000000
15 2 -3.8418390000 7.2936600000 -0.8900000000
16 2 -6.3218390000 7.0796600000 -0.8900000000
17 2 -6.3218390000 7.0796600000 0.8900000000
18 2 -5.2938390000 9.3466600000 0.8900000000
19 2 -5.2938390000 9.3466600000 -0.8900000000
20 1 -1.4518390000 1.2836600000 0.0000000000
21 2 -0.9378390000 3.1866600000 -0.8900000000
22 2 -0.9378390000 3.1866600000 0.8900000000
23 1 0.0001610000 0.7696600000 0.0000000000
24 2 -1.9658390000 0.9196600000 0.8900000000
25 2 -1.9658390000 0.9196600000 -0.8900000000
26 1 0.0001610000 -0.7703400000 0.0000000000
27 2 0.5141610000 1.1336600000 -0.8900000000
28 2 0.5141610000 1.1336600000 0.8900000000
29 1 1.4521610000 -1.2833400000 0.0000000000
30 2 -0.5138390000 -1.1333400000 0.8900000000
31 2 -0.5138390000 -1.1333400000 -0.8900000000
32 1 1.4521610000 -2.8233400000 0.0000000000
33 2 1.9661610000 -0.9203400000 -0.8900000000
34 2 1.9661610000 -0.9203400000 0.8900000000
35 1 2.9041610000 -3.3363400000 0.0000000000
36 2 0.9381610000 -3.1863400000 0.8900000000
37 2 0.9381610000 -3.1863400000 -0.8900000000
38 1 2.9041610000 -4.8763400000 0.0000000000
39 2 3.4171610000 -2.9733400000 -0.8900000000
40 2 3.4171610000 -2.9733400000 0.8900000000
41 1 4.3561610000 -5.3903400000 0.0000000000
42 2 2.3901610000 -5.2403400000 0.8900000000
43 2 2.3901610000 -5.2403400000 -0.8900000000
44 1 4.3561610000 -6.9303400000 0.0000000000
45 2 4.8691610000 -5.0263400000 -0.8900000000
46 2 4.8691610000 -5.0263400000 0.8900000000
47 1 5.8071610000 -7.4433400000 0.0000000000
48 2 3.8421610000 -7.2933400000 0.8900000000
49 2 3.8421610000 -7.2933400000 -0.8900000000
50 1 5.8071610000 -8.9833400000 0.0000000000
51 2 6.3211610000 -7.0803400000 -0.8900000000
52 2 6.3211610000 -7.0803400000 0.8900000000
53 2 5.2941610000 -9.3463400000 0.8900000000
54 2 5.2941610000 -9.3463400000 -0.8900000000
55 1 -9.7398390000 14.9936600000 -0.0000000000
56 1 -9.7398390000 13.4536600000 -0.0000000000
57 1 -8.2878390000 12.9406600000 -0.0000000000
58 1 -8.2878390000 11.4006600000 -0.0000000000
59 1 -6.8358390000 10.8866600000 -0.0000000000
60 1 -6.8358390000 9.3466600000 -0.0000000000
61 1 -11.1918390000 15.5066600000 -0.0000000000
62 2 -9.2258390000 15.3566600000 0.8900000000
63 2 -9.2258390000 15.3566600000 -0.8900000000
64 2 -10.2538390000 13.0906600000 0.8900000000
65 2 -10.2538390000 13.0906600000 -0.8900000000
66 2 -7.7738390000 13.3036600000 -0.8900000000
67 2 -7.7738390000 13.3036600000 0.8900000000
68 2 -8.8018390000 11.0366600000 0.8900000000
69 2 -8.8018390000 11.0366600000 -0.8900000000
70 2 -6.3218390000 11.2506600000 -0.8900000000
71 2 -6.3218390000 11.2506600000 0.8900000000
72 2 -7.3498390000 8.9836600000 0.8900000000
73 2 -7.3498390000 8.9836600000 -0.8900000000
74 1 -11.1918390000 17.0466600000 -0.0000000000
75 2 -11.7058390000 15.1436600000 -0.8900000000
76 2 -11.7058390000 15.1436600000 0.8900000000
77 1 -12.6438390000 17.5606600000 -0.0000000000
78 2 -10.6778390000 17.4106600000 0.8900000000
79 2 -10.6778390000 17.4106600000 -0.8900000000
80 1 -12.6438390000 19.1006600000 -0.0000000000
81 2 -13.1578390000 17.1966600000 -0.8900000000
82 2 -13.1578390000 17.1966600000 0.8900000000
83 1 -14.0958390000 19.6136600000 -0.0000000000
84 2 -12.1298390000 19.4636600000 0.8900000000
85 2 -12.1298390000 19.4636600000 -0.8900000000
86 1 -14.0958390000 21.1536600000 -0.0000000000
87 2 -14.6098390000 19.2506610000 -0.8900000000
88 2 -14.6098390000 19.2506610000 0.8900000000
89 1 -15.5478390000 21.6666600000 -0.0000000000
90 2 -13.5818390000 21.5166600000 0.8900000000
91 2 -13.5818390000 21.5166600000 -0.8900000000
92 1 -15.5478390000 23.2066610000 -0.0000000000
93 2 -16.0608390000 21.3036610000 -0.8900000000
94 2 -16.0608390000 21.3036610000 0.8900000000
95 1 -16.9998390000 23.7206610000 -0.0000000000
96 2 -15.0338390000 23.5706600000 0.8900000000
97 2 -15.0338390000 23.5706600000 -0.8900000000
98 1 -16.9998390000 25.2606610000 -0.0000000000
99 2 -17.5128390000 23.3566600000 -0.8900000000
100 2 -17.5128390000 23.3566600000 0.8900000000
101 1 -18.4508390000 25.7736600000 -0.0000000000
102 2 -16.4858390000 25.6236610000 0.8900000000
103 2 -16.4858390000 25.6236610000 -0.8900000000
104 1 -18.4508390000 27.3136600000 -0.0000000000
105 2 -18.9648390000 25.4106600000 -0.8900000000
106 2 -18.9648390000 25.4106600000 0.8900000000
107 2 -17.9378390000 27.6766600000 0.8900000000
108 2 -17.9378390000 27.6766600000 -0.8900000000
109 1 9.7391610000 -14.9933400000 0.0000000000
110 1 9.7391610000 -13.4533400000 0.0000000000
111 1 8.2871610000 -12.9403400000 0.0000000000
112 1 8.2871610000 -11.4003400000 0.0000000000
113 1 6.8351610000 -10.8863400000 0.0000000000
114 1 6.8351610000 -9.3463400000 0.0000000000
115 1 11.1911610000 -15.5063400000 0.0000000000
116 2 9.2251610000 -15.3563400000 0.8900000000
117 2 9.2251610000 -15.3563400000 -0.8900000000
118 2 10.2531610000 -13.0903400000 0.8900000000
119 2 10.2531610000 -13.0903400000 -0.8900000000
120 2 7.7731610000 -13.3033400000 -0.8900000000
121 2 7.7731610000 -13.3033400000 0.8900000000
122 2 8.8011610000 -11.0363400000 0.8900000000
123 2 8.8011610000 -11.0363400000 -0.8900000000
124 2 6.3211610000 -11.2503400000 -0.8900000000
125 2 6.3211610000 -11.2503400000 0.8900000000
126 2 7.3491610000 -8.9833400000 0.8900000000
127 2 7.3491610000 -8.9833400000 -0.8900000000
128 1 11.1911610000 -17.0463400000 0.0000000000
129 2 11.7051610000 -15.1433400000 -0.8900000000
130 2 11.7051610000 -15.1433400000 0.8900000000
131 1 12.6431610000 -17.5603400000 0.0000000000
132 2 10.6771610000 -17.4103400000 0.8900000000
133 2 10.6771610000 -17.4103400000 -0.8900000000
134 1 12.6431610000 -19.1003400000 0.0000000000
135 2 13.1571610000 -17.1963400000 -0.8900000000
136 2 13.1571610000 -17.1963400000 0.8900000000
137 1 14.0951610000 -19.6133400000 0.0000000000
138 2 12.1291610000 -19.4633400000 0.8900000000
139 2 12.1291610000 -19.4633400000 -0.8900000000
140 1 14.0951610000 -21.1533400000 0.0000000000
141 2 14.6091610000 -19.2503400000 -0.8900000000
142 2 14.6091610000 -19.2503400000 0.8900000000
143 1 15.5471610000 -21.6663400000 0.0000000000
144 2 13.5811610000 -21.5163400000 0.8900000000
145 2 13.5811610000 -21.5163400000 -0.8900000000
146 1 15.5471610000 -23.2063400000 0.0000000000
147 2 16.0601610000 -21.3033400000 -0.8900000000
148 2 16.0601610000 -21.3033400000 0.8900000000
149 1 16.9991610000 -23.7203400000 0.0000000000
150 2 15.0331610000 -23.5703400000 0.8900000000
151 2 15.0331610000 -23.5703400000 -0.8900000000
152 1 16.9991610000 -25.2603400000 0.0000000000
153 2 17.5121610000 -23.3563400000 -0.8900000000
154 2 17.5121610000 -23.3563400000 0.8900000000
155 1 18.4501610000 -25.7733400000 0.0000000000
156 2 16.4851610000 -25.6233400000 0.8900000000
157 2 16.4851610000 -25.6233400000 -0.8900000000
158 1 18.4501610000 -27.3133400000 0.0000000000
159 2 18.9641610000 -25.4103400000 -0.8900000000
160 2 18.9641610000 -25.4103400000 0.8900000000
161 2 17.9371610000 -27.6763400000 0.8900000000
162 2 17.9371610000 -27.6763400000 -0.8900000000
163 1 22.3821610000 -33.3233400000 0.0000000000
164 1 22.3821610000 -31.7833400000 0.0000000000
165 1 20.9301610000 -31.2703400000 0.0000000000
166 1 20.9301610000 -29.7303400000 0.0000000000
167 1 19.4781610000 -29.2163400000 0.0000000000
168 1 19.4781610000 -27.6763400000 0.0000000000
169 1 23.8341610000 -33.8363400000 0.0000000000
170 2 21.8681610000 -33.6863400000 0.8900000000
171 2 21.8681610000 -33.6863400000 -0.8900000000
172 2 22.8961610000 -31.4203400000 0.8900000000
173 2 22.8961610000 -31.4203400000 -0.8900000000
174 2 20.4161610000 -31.6333400000 -0.8900000000
175 2 20.4161610000 -31.6333400000 0.8900000000
176 2 21.4441610000 -29.3663400000 0.8900000000
177 2 21.4441610000 -29.3663400000 -0.8900000000
178 2 18.9641610000 -29.5803400000 -0.8900000000
179 2 18.9641610000 -29.5803400000 0.8900000000
180 2 19.9921610000 -27.3133400000 0.8900000000
181 2 19.9921610000 -27.3133400000 -0.8900000000
182 1 23.8341610000 -35.3763400000 0.0000000000
183 2 24.3481610000 -33.4733400000 -0.8900000000
184 2 24.3481610000 -33.4733400000 0.8900000000
185 1 25.2861610000 -35.8903400000 0.0000000000
186 2 23.3201610000 -35.7403400000 0.8900000000
187 2 23.3201610000 -35.7403400000 -0.8900000000
188 1 25.2861610000 -37.4303400000 0.0000000000
189 2 25.8001610000 -35.5263400000 -0.8900000000
190 2 25.8001610000 -35.5263400000 0.8900000000
191 1 26.7381610000 -37.9433400000 0.0000000000
192 2 24.7721610000 -37.7933400000 0.8900000000
193 2 24.7721610000 -37.7933400000 -0.8900000000
194 1 26.7381610000 -39.4833400000 0.0000000000
195 2 27.2521610000 -37.5803400000 -0.8900000000
196 2 27.2521610000 -37.5803400000 0.8900000000
197 1 28.1901610000 -39.9963400000 0.0000000000
198 2 26.2241610000 -39.8463400000 0.8900000000
199 2 26.2241610000 -39.8463400000 -0.8900000000
200 1 28.1901610000 -41.5363400000 0.0000000000
201 2 28.7031610000 -39.6333400000 -0.8900000000
202 2 28.7031610000 -39.6333400000 0.8900000000
203 1 29.6421610000 -42.0503400000 0.0000000000
204 2 27.6761610000 -41.9003390000 0.8900000000
205 2 27.6761610000 -41.9003390000 -0.8900000000
206 1 29.6421610000 -43.5903400000 0.0000000000
207 2 30.1551610000 -41.6863400000 -0.8900000000
208 2 30.1551610000 -41.6863400000 0.8900000000
209 1 31.0931610000 -44.1033400000 0.0000000000
210 2 29.1281610000 -43.9533400000 0.8900000000
211 2 29.1281610000 -43.9533400000 -0.8900000000
212 1 31.0931610000 -45.6433400000 0.0000000000
213 2 31.6071610000 -43.7403400000 -0.8900000000
214 2 31.6071610000 -43.7403400000 0.8900000000
215 2 30.5801610000 -46.0063390000 0.8900000000
216 2 30.5801610000 -46.0063390000 -0.8900000000
217 1 -22.3828390000 33.3236600000 -0.0000000000
218 1 -22.3828390000 31.7836600000 -0.0000000000
219 1 -20.9308390000 31.2706600000 -0.0000000000
220 1 -20.9308390000 29.7306600000 -0.0000000000
221 1 -19.4788390000 29.2166600000 -0.0000000000
222 1 -19.4788390000 27.6766600000 -0.0000000000
223 1 -23.8348390000 33.8366600000 -0.0000000000
224 2 -21.8688390000 33.6866600000 0.8900000000
225 2 -21.8688390000 33.6866600000 -0.8900000000
226 2 -22.8968390000 31.4206600000 0.8900000000
227 2 -22.8968390000 31.4206600000 -0.8900000000
228 2 -20.4168390000 31.6336600000 -0.8900000000
229 2 -20.4168390000 31.6336600000 0.8900000000
230 2 -21.4448390000 29.3666600000 0.8900000000
231 2 -21.4448390000 29.3666600000 -0.8900000000
232 2 -18.9648390000 29.5806600000 -0.8900000000
233 2 -18.9648390000 29.5806600000 0.8900000000
234 2 -19.9928390000 27.3136600000 0.8900000000
235 2 -19.9928390000 27.3136600000 -0.8900000000
236 1 -23.8348390000 35.3766600000 -0.0000000000
237 2 -24.3488390000 33.4736600000 -0.8900000000
238 2 -24.3488390000 33.4736600000 0.8899990000
239 1 -25.2868390000 35.8906600000 -0.0000010000
240 2 -23.3208390000 35.7406600000 0.8900000000
241 2 -23.3208390000 35.7406600000 -0.8900000000
242 1 -25.2868390000 37.4306600000 -0.0000010000
243 2 -25.8008390000 35.5266600000 -0.8900010000
244 2 -25.8008390000 35.5266600000 0.8899990000
245 1 -26.7388390000 37.9436600000 -0.0000010000
246 2 -24.7728390000 37.7936600000 0.8899990000
247 2 -24.7728390000 37.7936600000 -0.8900010000
248 1 -26.7388390000 39.4836600000 -0.0000010000
249 2 -27.2528390000 37.5806600000 -0.8900010000
250 2 -27.2528390000 37.5806600000 0.8899990000
251 1 -28.1908390000 39.9966600000 -0.0000010000
252 2 -26.2248390000 39.8466600000 0.8899990000
253 2 -26.2248390000 39.8466600000 -0.8900010000
254 1 -28.1908390000 41.5366610000 -0.0000010000
255 2 -28.7038390000 39.6336600000 -0.8900010000
256 2 -28.7038390000 39.6336600000 0.8899990000
257 1 -29.6428390000 42.0506610000 -0.0000010000
258 2 -27.6768390000 41.9006600000 0.8899990000
259 2 -27.6768390000 41.9006600000 -0.8900010000
260 1 -29.6428390000 43.5906610000 -0.0000010000
261 2 -30.1558390000 41.6866600000 -0.8900010000
262 2 -30.1558390000 41.6866600000 0.8899990000
263 1 -31.0938390000 44.1036600000 -0.0000010000
264 2 -29.1288390000 43.9536610000 0.8899990000
265 2 -29.1288390000 43.9536610000 -0.8900010000
266 1 -31.0938390000 45.6436600000 -0.0000010000
267 2 -31.6078390000 43.7406600000 -0.8900010000
268 2 -31.6078390000 43.7406600000 0.8899990000
269 2 -32.1218390000 46.0066600000 -0.0000010000
270 2 -30.5808390000 46.0066600000 0.8899990000
271 2 -30.5808390000 46.0066600000 -0.8900010000
272 1 35.0251610000 -51.6533400000 0.0000000000
273 1 35.0251610000 -50.1133400000 0.0000000000
274 1 33.5731610000 -49.6003400000 0.0000000000
275 1 33.5731610000 -48.0603400000 0.0000000000
276 1 32.1211610000 -47.5463400000 0.0000000000
277 1 32.1211610000 -46.0063390000 0.0000000000
278 1 36.4771610000 -52.1663400000 0.0000000000
279 2 34.5111610000 -52.0163400000 0.8900000000
280 2 34.5111610000 -52.0163400000 -0.8900000000
281 2 35.5391610000 -49.7503400000 0.8900000000
282 2 35.5391610000 -49.7503400000 -0.8900000000
283 2 33.0591610000 -49.9633400000 -0.8900000000
284 2 33.0591610000 -49.9633400000 0.8900000000
285 2 34.0871610000 -47.6963390000 0.8900000000
286 2 34.0871610000 -47.6963390000 -0.8900000000
287 2 31.6071610000 -47.9103390000 -0.8900000000
288 2 31.6071610000 -47.9103390000 0.8900000000
289 2 32.6351610000 -45.6433400000 0.8900000000
290 2 32.6351610000 -45.6433400000 -0.8900000000
291 1 36.4771610000 -53.7063390000 0.0000000000
292 2 36.9911610000 -51.8033400000 -0.8900000000
293 2 36.9911610000 -51.8033400000 0.8900000000
294 1 37.9291610000 -54.2203400000 0.0000000000
295 2 35.9631610000 -54.0703400000 0.8900000000
296 2 35.9631610000 -54.0703400000 -0.8900000000
297 1 37.9291610000 -55.7603400000 0.0000000000
298 2 38.4431610000 -53.8563400000 -0.8900000000
299 2 38.4431610000 -53.8563400000 0.8900000000
300 1 39.3811610000 -56.2733400000 0.0000000000
301 2 37.4151610000 -56.1233400000 0.8900000000
302 2 37.4151610000 -56.1233400000 -0.8900000000
303 1 39.3811610000 -57.8133400000 0.0000000000
304 2 39.8951610000 -55.9103400000 -0.8900000000
305 2 39.8951610000 -55.9103400000 0.8900000000
306 1 40.8331610000 -58.3263400000 0.0000000000
307 2 38.8671610000 -58.1763400000 0.8900000000
308 2 38.8671610000 -58.1763400000 -0.8900000000
309 1 40.8331610000 -59.8663400000 0.0000000000
310 2 41.3461610000 -57.9633400000 -0.8900000000
311 2 41.3461610000 -57.9633400000 0.8900000000
312 1 42.2851610000 -60.3803400000 0.0000000000
313 2 40.3191610000 -60.2303390000 0.8900000000
314 2 40.3191610000 -60.2303390000 -0.8900000000
315 1 42.2851610000 -61.9203400000 0.0000000000
316 2 42.7981610000 -60.0163400000 -0.8900000000
317 2 42.7981610000 -60.0163400000 0.8900000000
318 1 43.7361610000 -62.4333390000 0.0000000000
319 2 41.7711610000 -62.2833400000 0.8900000000
320 2 41.7711610000 -62.2833400000 -0.8900000000
321 1 43.7361610000 -63.9733390000 0.0000000000
322 2 44.2501610000 -62.0703400000 -0.8900000000
323 2 44.2501610000 -62.0703400000 0.8900000000
324 2 43.2231610000 -64.3363390000 0.8900000000
325 2 43.2231610000 -64.3363390000 -0.8900000000
326 1 47.6681610000 -69.9833390000 -0.0000000000
327 1 47.6681610000 -68.4433400000 -0.0000000000
328 1 46.2161610000 -67.9303390000 -0.0000000000
329 1 46.2161610000 -66.3903390000 -0.0000000000
330 1 44.7641610000 -65.8763400000 -0.0000000000
331 1 44.7641610000 -64.3363390000 -0.0000000000
332 1 49.1201610000 -70.4963400000 -0.0000000000
333 2 47.1541610000 -70.3463390000 0.8900000000
334 2 47.1541610000 -70.3463390000 -0.8900000000
335 2 48.1821610000 -68.0803390000 0.8900000000
336 2 48.1821610000 -68.0803390000 -0.8900000000
337 2 45.7021610000 -68.2933390000 -0.8900000000
338 2 45.7021610000 -68.2933390000 0.8900000000
339 2 46.7301610000 -66.0263390000 0.8900000000
340 2 46.7301610000 -66.0263390000 -0.8900000000
341 2 44.2501610000 -66.2403390000 -0.8900000000
342 2 44.2501610000 -66.2403390000 0.8900000000
343 2 45.2781610000 -63.9733390000 0.8900000000
344 2 45.2781610000 -63.9733390000 -0.8900000000
345 1 49.1201610000 -72.0363390000 -0.0000000000
346 2 49.6341610000 -70.1333400000 -0.8900000000
347 2 49.6341610000 -70.1333400000 0.8900000000
348 1 50.5721610000 -72.5503400000 -0.0000000000
349 2 48.6061610000 -72.4003390000 0.8900000000
350 2 48.6061610000 -72.4003390000 -0.8900000000
351 1 50.5721610000 -74.0903400000 -0.0000000000
352 2 51.0861610000 -72.1863390000 -0.8900000000
353 2 51.0861610000 -72.1863390000 0.8900000000
354 1 52.0241610000 -74.6033400000 -0.0000000000
355 2 50.0581610000 -74.4533390000 0.8900000000
356 2 50.0581610000 -74.4533390000 -0.8900000000
357 1 52.0241610000 -76.1433400000 -0.0000000000
358 2 52.5381610000 -74.2403400000 -0.8900000000
359 2 52.5381610000 -74.2403400000 0.8900000000
360 1 53.4761610000 -76.6563400000 -0.0000000000
361 2 51.5101610000 -76.5063390000 0.8900000000
362 2 51.5101610000 -76.5063390000 -0.8900000000
363 1 53.4761610000 -78.1963400000 -0.0000000000
364 2 53.9891610000 -76.2933400000 -0.8900000000
365 2 53.9891610000 -76.2933400000 0.8900000000
366 1 54.9281610000 -78.7103400000 -0.0000000000
367 2 52.9621610000 -78.5603390000 0.8900000000
368 2 52.9621610000 -78.5603390000 -0.8900000000
369 1 54.9281610000 -80.2503400000 -0.0000000000
370 2 55.4411610000 -78.3463400000 -0.8900000000
371 2 55.4411610000 -78.3463400000 0.8900000000
372 1 56.3791620000 -80.7633390000 -0.0000000000
373 2 54.4141610000 -80.6133400000 0.8900000000
374 2 54.4141610000 -80.6133400000 -0.8900000000
375 1 56.3791620000 -82.3033390000 -0.0000000000
376 2 56.8931610000 -80.4003390000 -0.8900000000
377 2 56.8931610000 -80.4003390000 0.8900000000
378 2 55.8661620000 -82.6663390000 0.8900000000
379 2 55.8661620000 -82.6663390000 -0.8900000000
380 1 60.3111610000 -88.3133390000 -0.0000000000
381 1 60.3111610000 -86.7733390000 -0.0000000000
382 1 58.8591620000 -86.2603390000 -0.0000000000
383 1 58.8591620000 -84.7203390000 -0.0000000000
384 1 57.4071610000 -84.2063390000 -0.0000000000
385 1 57.4071610000 -82.6663390000 -0.0000000000
386 1 61.7631610000 -88.8263390000 -0.0000000000
387 2 59.7971610000 -88.6763390000 0.8900000000
388 2 59.7971610000 -88.6763390000 -0.8900000000
389 2 60.8251610000 -86.4103390000 0.8900000000
390 2 60.8251610000 -86.4103390000 -0.8900000000
391 2 58.3451610000 -86.6233390000 -0.8900000000
392 2 58.3451610000 -86.6233390000 0.8900000000
393 2 59.3731620000 -84.3563390000 0.8900000000
394 2 59.3731610000 -84.3563390000 -0.8900000000
395 2 56.8931610000 -84.5703390000 -0.8900000000
396 2 56.8931620000 -84.5703390000 0.8900000000
397 2 57.9211610000 -82.3033390000 0.8900000000
398 2 57.9211610000 -82.3033390000 -0.8900000000
399 1 61.7631610000 -90.3663390000 -0.0000000000
400 2 62.2771610000 -88.4633390000 -0.8900000000
401 2 62.2771620000 -88.4633390000 0.8899990000
402 1 63.2151620000 -90.8803390000 -0.0000010000
403 2 61.2491610000 -90.7303390000 0.8899990000
404 2 61.2491610000 -90.7303390000 -0.8900000000
405 1 63.2151620000 -92.4203390000 -0.0000010000
406 2 63.7291610000 -90.5163390000 -0.8900010000
407 2 63.7291610000 -90.5163390000 0.8899990000
408 1 64.6671610000 -92.9333390000 -0.0000010000
409 2 62.7011610000 -92.7833390000 0.8899990000
410 2 62.7011610000 -92.7833390000 -0.8900010000
411 1 64.6671610000 -94.4733390000 -0.0000010000
412 2 65.1811610000 -92.5703400000 -0.8900010000
413 2 65.1811610000 -92.5703400000 0.8899990000
414 1 66.1191610000 -94.9863390000 -0.0000010000
415 2 64.1531610000 -94.8363390000 0.8899990000
416 2 64.1531610000 -94.8363390000 -0.8900010000
417 1 66.1191610000 -96.5263400000 -0.0000010000
418 2 66.6321610000 -94.6233400000 -0.8900010000
419 2 66.6321610000 -94.6233400000 0.8899990000
420 1 67.5711610000 -97.0403400000 -0.0000010000
421 2 65.6051610000 -96.8903390000 0.8899990000
422 2 65.6051610000 -96.8903390000 -0.8900010000
423 1 67.5711610000 -98.5803400000 -0.0000010000
424 2 68.0841610000 -96.6763390000 -0.8900010000
425 2 68.0841610000 -96.6763400000 0.8899990000
426 1 69.0221620000 -99.0933390000 -0.0000010000
427 2 67.0571620000 -98.9433400000 0.8899990000
428 2 67.0571610000 -98.9433400000 -0.8900010000
429 1 69.0221620000 -100.6333390000 -0.0000010000
430 2 69.5361620000 -98.7303390000 -0.8900010000
431 2 69.5361620000 -98.7303390000 0.8899990000
432 2 68.5091620000 -100.9963390000 0.8899990000
433 2 68.5091620000 -100.9963390000 -0.8900010000
434 1 72.9541620000 -106.6433390000 -0.0000010000
435 1 72.9541620000 -105.1033390000 -0.0000010000
436 1 71.5021620000 -104.5903390000 -0.0000010000
437 1 71.5021620000 -103.0503390000 -0.0000010000
438 1 70.0501620000 -102.5363390000 -0.0000010000
439 1 70.0501620000 -100.9963390000 -0.0000010000
440 1 74.4061620000 -107.1563390000 -0.0000010000
441 2 72.4401620000 -107.0063390000 0.8899990000
442 2 72.4401610000 -107.0063390000 -0.8900010000
443 2 73.4681620000 -104.7403390000 0.8899990000
444 2 73.4681620000 -104.7403390000 -0.8900010000
445 2 70.9881610000 -104.9533390000 -0.8900010000
446 2 70.9881620000 -104.9533390000 0.8899990000
447 2 72.0161620000 -102.6863390000 0.8899990000
448 2 72.0161620000 -102.6863390000 -0.8900010000
449 2 69.5361620000 -102.9003390000 -0.8900010000
450 2 69.5361620000 -102.9003390000 0.8899990000
451 2 70.5641620000 -100.6333390000 0.8899990000
452 2 70.5641610000 -100.6333390000 -0.8900010000
453 1 74.4061620000 -108.6963390000 -0.0000010000
454 2 74.9201620000 -106.7933390000 -0.8900010000
455 2 74.9201620000 -106.7933390000 0.8899990000
456 1 75.8581620000 -109.2103390000 -0.0000010000
457 2 73.8921620000 -109.0603390000 0.8899990000
458 2 73.8921620000 -109.0603390000 -0.8900010000
459 1 75.8581620000 -110.7503390000 -0.0000010000
460 2 76.3721620000 -108.8463390000 -0.8900010000
461 2 76.3721620000 -108.8463390000 0.8899990000
462 1 77.3101620000 -111.2633390000 -0.0000010000
463 2 75.3441620000 -111.1133390000 0.8899990000
464 2 75.3441620000 -111.1133390000 -0.8900010000
465 1 77.3101620000 -112.8033390000 -0.0000010000
466 2 77.8241610000 -110.9003390000 -0.8900010000
467 2 77.8241610000 -110.9003390000 0.8899990000
468 1 78.7621610000 -113.3163390000 -0.0000010000
469 2 76.7961620000 -113.1663390000 0.8899990000
470 2 76.7961620000 -113.1663390000 -0.8900010000
471 1 78.7621610000 -114.8563400000 -0.0000010000
472 2 79.2751610000 -112.9533390000 -0.8900010000
473 2 79.2751610000 -112.9533390000 0.8899990000
474 1 80.2141620000 -115.3703400000 -0.0000010000
475 2 78.2481620000 -115.2203390000 0.8899990000
476 2 78.2481610000 -115.2203390000 -0.8900010000
477 1 80.2141620000 -116.9103400000 -0.0000010000
478 2 80.7271620000 -115.0063390000 -0.8900010000
479 2 80.7271620000 -115.0063390000 0.8899990000
480 1 81.6651620000 -117.4233390000 -0.0000010000
481 2 79.7001620000 -117.2733400000 0.8899990000
482 2 79.7001620000 -117.2733400000 -0.8900010000
483 1 81.6651620000 -118.9633390000 -0.0000010000
484 2 82.1791620000 -117.0603390000 -0.8900010000
485 2 82.1791620000 -117.0603390000 0.8899990000
486 2 81.1521620000 -119.3263390000 0.8899990000
487 2 81.1521620000 -119.3263390000 -0.8900010000
488 1 85.5971620000 -124.9733390000 -0.0000010000
489 1 85.5971620000 -123.4333390000 -0.0000010000
490 1 84.1451620000 -122.9203390000 -0.0000010000
491 1 84.1451620000 -121.3803390000 -0.0000010000
492 1 82.6931620000 -120.8663390000 -0.0000010000
493 1 82.6931620000 -119.3263390000 -0.0000010000
494 1 87.0491620000 -125.4863390000 -0.0000020000
495 2 85.0831620000 -125.3363390000 0.8899990000
496 2 85.0831620000 -125.3363390000 -0.8900010000
497 2 86.1111620000 -123.0703390000 0.8899990000
498 2 86.1111620000 -123.0703390000 -0.8900010000
499 2 83.6311620000 -123.2833390000 -0.8900010000
500 2 83.6311620000 -123.2833390000 0.8899990000
501 2 84.6591620000 -121.0163390000 0.8899990000
502 2 84.6591620000 -121.0163390000 -0.8900010000
503 2 82.1791620000 -121.2303390000 -0.8900010000
504 2 82.1791620000 -121.2303390000 0.8899990000
505 2 83.2071620000 -118.9633390000 0.8899990000
506 2 83.2071620000 -118.9633390000 -0.8900010000
507 1 87.0491620000 -127.0263390000 -0.0000020000
508 2 87.5631620000 -125.1233390000 -0.8900020000
509 2 87.5631620000 -125.1233390000 0.8899980000
510 1 88.5011620000 -127.5403390000 -0.0000020000
511 2 86.5351620000 -127.3903390000 0.8899980000
512 2 86.5351620000 -127.3903390000 -0.8900020000
513 1 88.5011620000 -129.0803390000 -0.0000020000
514 2 89.0151620000 -127.1763390000 -0.8900020000
515 2 89.0151620000 -127.1763390000 0.8899980000
516 1 89.9531620000 -129.5933390000 -0.0000020000
517 2 87.9871620000 -129.4433390000 0.8899980000
518 2 87.9871620000 -129.4433390000 -0.8900020000
519 1 89.9531620000 -131.1333390000 -0.0000020000
520 2 90.4671620000 -129.2303390000 -0.8900020000
521 2 90.4671620000 -129.2303390000 0.8899980000
522 1 91.4051620000 -131.6463390000 -0.0000020000
523 2 89.4391620000 -131.4963390000 0.8899980000
524 2 89.4391620000 -131.4963390000 -0.8900020000
525 1 91.4051620000 -133.1863400000 -0.0000020000
526 2 91.9181620000 -131.2833390000 -0.8900020000
527 2 91.9181620000 -131.2833390000 0.8899980000
528 1 92.8571620000 -133.7003400000 -0.0000020000
529 2 90.8911620000 -133.5503390000 0.8899980000
530 2 90.8911620000 -133.5503390000 -0.8900020000
531 1 92.8571620000 -135.2403400000 -0.0000020000
532 2 93.3701620000 -133.3363390000 -0.8900020000
533 2 93.3701620000 -133.3363390000 0.8899980000
534 1 94.3081620000 -135.7533390000 -0.0000020000
535 2 92.3431620000 -135.6033400000 0.8899980000
536 2 92.3431620000 -135.6033400000 -0.8900020000
537 1 94.3081620000 -137.2933390000 -0.0000020000
538 2 94.8221620000 -135.3903390000 -0.8900020000
539 2 94.8221620000 -135.3903390000 0.8899980000
540 2 93.7951620000 -137.6563390000 0.8899980000
541 2 93.7951620000 -137.6563390000 -0.8900020000
542 1 98.2401620000 -143.3033390000 -0.0000020000
543 1 98.2401620000 -141.7633390000 -0.0000020000
544 1 96.7881620000 -141.2503390000 -0.0000020000
545 1 96.7881620000 -139.7103390000 -0.0000020000
546 1 95.3361620000 -139.1963390000 -0.0000020000
547 1 95.3361620000 -137.6563390000 -0.0000020000
548 1 99.6921620000 -143.8163390000 -0.0000020000
549 2 97.7261620000 -143.6663390000 0.8899980000
550 2 97.7261620000 -143.6663390000 -0.8900020000
551 2 98.7541620000 -141.4003390000 0.8899980000
552 2 98.7541620000 -141.4003390000 -0.8900020000
553 2 96.2741620000 -141.6133390000 -0.8900020000
554 2 96.2741620000 -141.6133390000 0.8899980000
555 2 97.3021620000 -139.3463390000 0.8899980000
556 2 97.3021620000 -139.3463390000 -0.8900020000
557 2 94.8221620000 -139.5603390000 -0.8900020000
558 2 94.8221620000 -139.5603390000 0.8899980000
559 2 95.8501620000 -137.2933390000 0.8899980000
560 2 95.8501620000 -137.2933390000 -0.8900020000
561 1 99.6921620000 -145.3563390000 -0.0000020000
562 2 100.2061620000 -143.4533390000 -0.8900020000
563 2 100.2061620000 -143.4533390000 0.8899980000
564 1 101.1441620000 -145.8703390000 -0.0000020000
565 2 99.1781620000 -145.7203390000 0.8899980000
566 2 99.1781620000 -145.7203390000 -0.8900020000
567 1 101.1441620000 -147.4103390000 -0.0000020000
568 2 101.6581620000 -145.5063390000 -0.8900020000
569 2 101.6581620000 -145.5063390000 0.8899980000
570 1 102.5961620000 -147.9233390000 -0.0000020000
571 2 100.6301620000 -147.7733390000 0.8899980000
572 2 100.6301620000 -147.7733390000 -0.8900020000
573 1 102.5961620000 -149.4633390000 -0.0000020000
574 2 103.1101620000 -147.5603390000 -0.8900020000
575 2 103.1101620000 -147.5603390000 0.8899980000
576 1 104.0481620000 -149.9763390000 -0.0000020000
577 2 102.0821620000 -149.8263390000 0.8899980000
578 2 102.0821620000 -149.8263390000 -0.8900020000
579 1 104.0481620000 -151.5163400000 -0.0000020000
580 2 104.5611620000 -149.6133390000 -0.8900020000
581 2 104.5611620000 -149.6133390000 0.8899980000
582 1 105.5001620000 -152.0303400000 -0.0000020000
583 2 103.5341620000 -151.8803390000 0.8899980000
584 2 103.5341620000 -151.8803390000 -0.8900020000
585 1 105.5001620000 -153.5703400000 -0.0000020000
586 2 106.0131620000 -151.6663390000 -0.8900020000
587 2 106.0131620000 -151.6663390000 0.8899980000
588 1 106.9511620000 -154.0833390000 -0.0000020000
589 2 104.9861620000 -153.9333390000 0.8899980000
590 2 104.9861620000 -153.9333390000 -0.8900020000
591 1 106.9511620000 -155.6233390000 -0.0000020000
592 2 107.4651620000 -153.7203390000 -0.8900020000
593 2 107.4651620000 -153.7203390000 0.8899980000
594 2 107.9791620000 -155.9863390000 -0.0000020000
595 2 106.4381620000 -155.9863390000 0.8899980000
596 2 106.4381620000 -155.9863390000 -0.8900020000
}
Driver = VelocityVerlet {
  Steps = 1000
  TimeStep [Femtosecond] = 0.10000000000000
  Thermostat = None {
    InitialTemperature [Kelvin] = 5000
  }
  OutputPrefix = "geom.out"
  MDRestartFrequency = 1
  Velocities = {}
  ConvergentForcesOnly = No
  MovedAtoms = "1:-1"
  KeepStationary = Yes
  Masses = {}
}
Hamiltonian = DFTB {
  SCC = yes
  SCCTolerance = 1.00E-12
  MaxSCCIterations = 10
  MaxAngularMomentum = {
    C = "p"
    H = "s"
  }
  solver = QR {}
  SlaterKosterFiles = {
    C-C = "C-C.skf"
    C-H = "C-H.skf"
    H-C = "H-C.skf"
    H-H = "H-H.skf"
  }
  PolynomialRepulsive = {}
  ShellResolvedSCC = No
  OldSKInterpolation = No
  RangeSeparated = None {}
  ReadInitialCharges = No
  InitialCharges = {}
  Mixer = Broyden {
    MixingParameter = 0.20000000000000001
    InverseJacobiWeight = 1.0000000000000000E-002
    MinimalWeight = 1.0000000000000000
    MaximalWeight = 100000.00000000000
    WeightFactor = 1.0000000000000000E-002
  }
  HCorrection = None {}
  SpinPolarisation = {}
  ElectricField = {}
  Filling = Fermi {
    Temperature = 0.0000000000000000