Geometry = GenFormat {
41 C
C H
1 1 -1.1328290000 0.7383900000 0.0000000000
2 1 -1.1328290000 2.2783900000 0.0000000000
3 1 -2.5848290000 2.7923900000 0.0000000000
4 1 -2.5848290000 4.3323900000 0.0000000000
5 1 -4.0368290000 4.8453900000 0.0000000000
6 1 -4.0368290000 6.3853900000 0.0000000000
7 1 0.3191710000 0.2253900000 0.0000000000
8 2 -1.6468290000 0.3753900000 0.8900000000
9 2 -1.6468290000 0.3753900000 -0.8900000000
10 2 -0.6198290000 2.6423900000 0.8900000000
11 2 -0.6198290000 2.6423900000 -0.8900000000
12 2 -3.0988290000 2.4283900000 -0.8900000000
13 2 -3.0988290000 2.4283900000 0.8900000000
14 2 -2.0718290000 4.6953900000 0.8900000000
15 2 -2.0718290000 4.6953900000 -0.8900000000
16 2 -4.5508290000 4.4823900000 -0.8900000000
17 2 -4.5508290000 4.4823900000 0.8900000000
18 2 -5.0648290000 6.7483900000 0.0000000000
19 2 -3.5228290000 6.7483900000 0.8900000000
20 2 -3.5228290000 6.7483900000 -0.8900000000
21 1 0.3191710000 -1.3146100000 0.0000000000
22 2 0.8321710000 0.5883900000 -0.8900000000
23 2 0.8321710000 0.5883900000 0.8900000000
24 1 1.7701710000 -1.8276100000 0.0000000000
25 2 -0.1948290000 -1.6776100000 0.8900000000
26 2 -0.1948290000 -1.6776100000 -0.8900000000
27 1 1.7701710000 -3.3676100000 0.0000000000
28 2 2.2841710000 -1.4646100000 -0.8900000000
29 2 2.2841710000 -1.4646100000 0.8900000000
30 1 3.2221710000 -3.8816100000 0.0000000000
31 2 1.2571710000 -3.7316100000 0.8900000000
32 2 1.2571710000 -3.7316100000 -0.8900000000
33 1 3.2221710000 -5.4216100000 0.0000000000
34 2 3.7361710000 -3.5176100000 -0.8900000000
35 2 3.7361710000 -3.5176100000 0.8900000000
36 1 4.6741710000 -5.9346100000 0.0000000000
37 2 2.7091710000 -5.7846100000 0.8900000000
38 2 2.7091710000 -5.7846100000 -0.8900000000
39 2 4.6741710000 -7.0246100000 0.0000000000
40 2 5.1881710000 -5.5716100000 -0.8900000000
41 2 5.1881710000 -5.5716100000 0.8900000000
}
Driver = VelocityVerlet {
  Steps = 1000
  TimeStep [Femtosecond] = 0.10000000000000
  Thermostat = None {
    InitialTemperature [Kelvin] = 5000
  }
  OutputPrefix = "geom.out"
  MDRestartFrequency = 1
  Velocities = {}
  ConvergentForcesOnly = No
  MovedAtoms = "1:-1"
  KeepStationary = Yes
  Masses = {}
}
options = {
  WriteDetailedOut = No
  WriteAutotestTag = No
  WriteDetailedXML = No
  WriteResultsTag = No
  RandomSeed = 0
  WriteHS = No
  WriteRealHS = No
  MinimiseMemoryUsage = No
  ShowFoldedCoords = No
  TimingVerbosity = 1
  WriteChargesAsText = No
}
analysis = {
  WriteBandOut = No
  ProjectStates = {}
  WriteEigenvectors = No
  MullikenAnalysis = Yes
  AtomResolvedEnergies = No
  CalculateForces = No
  EigenvectorsAsTxt = No
}
Hamiltonian = DFTB {
  MaxAngularMomentum = {
    C = "p"
    H = "s"
  }
  solver = DivideAndConquer {}
  SlaterKosterFiles = {
    C-C = "C-C.skf"
    C-H = "C-H.skf"
    H-C = "H-C.skf"
    H-H = "H-H.skf"
  }
  PolynomialRepulsive = {}
  ShellResolvedSCC = No
  OldSKInterpolation = No
  RangeSeparated = None {}
  SCC = No
  SpinPolarisation = {}
  ElectricField = {}
  Filling = Fermi {
    Temperature = 0.0000000000000000
  }
  Charge = 0.0000000000000000
  OnSiteCorrection = {}
  Dispersion = {}
  Electrostatics = GammaFunctional {}
  Differentiation = FiniteDiff {
    Delta = 1.2207031250000000E-004
  }
}
ParserOptions = {
  ParserVersion = 7
  WriteHSDInput = Yes
  WriteXMLInput = No
  StopAfterParsing = No
  IgnoreUnprocessedNodes = No
}
ExcitedState = {}
