Geometry = GenFormat {
80 C
C H
1 1 -1.1328290000 0.7383900000 0.0000000000
2 1 -1.1328290000 2.2783900000 0.0000000000
3 1 -2.5848290000 2.7923900000 0.0000000000
4 1 -2.5848290000 4.3323900000 0.0000000000
5 1 -4.0368290000 4.8453900000 0.0000000000
6 1 -4.0368290000 6.3853900000 0.0000000000
7 1 0.3191710000 0.2253900000 0.0000000000
8 2 -1.6468290000 0.3753900000 0.8900000000
9 2 -1.6468290000 0.3753900000 -0.8900000000
10 2 -0.6198290000 2.6423900000 0.8900000000
11 2 -0.6198290000 2.6423900000 -0.8900000000
12 2 -3.0988290000 2.4283900000 -0.8900000000
13 2 -3.0988290000 2.4283900000 0.8900000000
14 2 -2.0718290000 4.6953900000 0.8900000000
15 2 -2.0718290000 4.6953900000 -0.8900000000
16 2 -4.5508290000 4.4823900000 -0.8900000000
17 2 -4.5508290000 4.4823900000 0.8900000000
18 2 -5.0648290000 6.7483900000 0.0000000000
19 2 -3.5228290000 6.7483900000 0.8900000000
20 2 -3.5228290000 6.7483900000 -0.8900000000
21 1 0.3191710000 -1.3146100000 0.0000000000
22 2 0.8321710000 0.5883900000 -0.8900000000
23 2 0.8321710000 0.5883900000 0.8900000000
24 1 1.7701710000 -1.8276100000 0.0000000000
25 2 -0.1948290000 -1.6776100000 0.8900000000
26 2 -0.1948290000 -1.6776100000 -0.8900000000
27 1 1.7701710000 -3.3676100000 0.0000000000
28 2 2.2841710000 -1.4646100000 -0.8900000000
29 2 2.2841710000 -1.4646100000 0.8900000000
30 1 3.2221710000 -3.8816100000 0.0000000000
31 2 1.2571710000 -3.7316100000 0.8900000000
32 2 1.2571710000 -3.7316100000 -0.8900000000
33 1 3.2221710000 -5.4216100000 0.0000000000
34 2 3.7361710000 -3.5176100000 -0.8900000000
35 2 3.7361710000 -3.5176100000 0.8900000000
36 1 4.6741710000 -5.9346100000 0.0000000000
37 2 2.7091710000 -5.7846100000 0.8900000000
38 2 2.7091710000 -5.7846100000 -0.8900000000
39 2 5.1881710000 -5.5716100000 -0.8900000000
40 2 5.1881710000 -5.5716100000 0.8900000000
41 1 9.0320210000 -11.6433640000 0.0000000000
42 1 7.5798940000 -11.1305980000 0.0000000000
43 1 7.5786880000 -9.5903070000 0.0000000000
44 1 6.1265610000 -9.0775420000 0.0000000000
45 1 6.1262970000 -7.5375830000 0.0000000000
46 1 4.6741710000 -7.0248180000 0.0000000000
47 1 9.0322850000 -13.1833220000 0.0000000000
48 2 9.5454520000 -11.2795590000 -0.8900000000
49 2 9.5454520000 -11.2795590000 0.8900000000
50 2 7.0658540000 -11.4931270000 -0.8900000000
51 2 7.0658540000 -11.4931270000 0.8900000000
52 2 8.0930610000 -9.2268350000 0.8900000000
53 2 8.0930610000 -9.2268350000 -0.8900000000
54 2 5.6134630000 -9.4404030000 -0.8900000000
55 2 5.6134630000 -9.4404030000 0.8900000000
56 2 6.6397280000 -7.1737780000 0.8900000000
57 2 6.6397280000 -7.1737780000 -0.8900000000
58 2 4.1607400000 -7.3886230000 -0.8900000000
59 2 4.1607400000 -7.3886230000 0.8900000000
60 1 10.4844120000 -13.6960870000 0.0000000000
61 2 8.5191870000 -13.5461840000 0.8900000000
62 2 8.5191870000 -13.5461840000 -0.8900000000
63 1 10.4850080000 -15.2351030000 0.0000000000
64 2 10.9978420000 -13.3322830000 -0.8900000000
65 2 10.9978420000 -13.3322830000 0.8900000000
66 1 11.9371350000 -15.7478680000 0.0000000000
67 2 9.9715770000 -15.5989080000 0.8900000000
68 2 9.9715770000 -15.5989080000 -0.8900000000
69 1 11.9383420000 -17.2881600000 0.0000000000
70 2 12.4511750000 -15.3853390000 -0.8900000000
71 2 12.4511750000 -15.3853390000 0.8900000000
72 1 13.3904680000 -17.8009250000 0.0000000000
73 2 11.4239680000 -17.6516320000 0.8900000000
74 2 11.4239680000 -17.6516320000 -0.8900000000
75 1 13.3907320000 -19.3408840000 0.0000000000
76 2 13.9035660000 -17.4380630000 -0.8900000000
77 2 13.9035660000 -17.4380630000 0.8900000000
78 2 14.4185360000 -19.7038150000 0.0000000000
79 2 12.8773010000 -19.7046890000 0.8900000000
80 2 12.8773010000 -19.7046890000 -0.8900000000
}
Driver = VelocityVerlet {
  Steps = 100
  TimeStep [Femtosecond] = 0.10000000000000
  Thermostat = None {
    InitialTemperature [Kelvin] = 5000
  }
  OutputPrefix = "geom.out"
  MDRestartFrequency = 1
  Velocities = {}
  MovedAtoms = "1:-1"
  KeepStationary = Yes
  ConvergentForcesOnly = Yes
  Masses = {}
}
Hamiltonian = DFTB {
  MaxAngularMomentum = {
    C = "p"
    H = "s"
  }
  solver = QR {}
  SlaterKosterFiles = {
    C-C = "C-C.skf"
    C-H = "C-H.skf"
    H-C = "H-C.skf"
    H-H = "H-H.skf"
  }
  PolynomialRepulsive = {}
  ShellResolvedSCC = No
  OldSKInterpolation = No
  RangeSeparated = None {}
  SCC = No
  SpinPolarisation = {}
  ElectricField = {}
  Filling = Fermi {
    Temperature = 0.0000000000000000
  }
  Charge = 0.0000000000000000
  OnSiteCorrection = {}
  Dispersion = {}
  Differentiation = FiniteDiff {
    Delta = 1.2207031250000000E-004
  }
}
ParserOptions = {
  ParserVersion = 7
  WriteHSDInput = Yes
  WriteXMLInput = No
  StopAfterParsing = No
  IgnoreUnprocessedNodes = No
}
Analysis = {
  ProjectStates = {}
  WriteEigenvectors = No
  WriteBandOut = Yes
  MullikenAnalysis = Yes
  AtomResolvedEnergies = No
  CalculateForces = No
  EigenvectorsAsTxt = No
}
ExcitedState = {}
Options = {
  WriteDetailedOut = Yes
  WriteAutotestTag = No
  WriteDetailedXML = No
  WriteResultsTag = No
  RandomSeed = 0
  WriteHS = No
  WriteRealHS = No
  MinimiseMemoryUsage = No
  ShowFoldedCoords = No
  TimingVerbosity = 1
  WriteChargesAsText = No
}
